0 2124
1 1918
2 1844
3 1771
4 1670
5 1595
6 1595
7 1536
8 1493
9 1425
10 1405
11 1364
12 1333
13 1333
14 1315
15 1273
16 1262
17 1251
18 1251
19 1198
20 1198
21 1188
22 1158
23 1158
24 1141
25 1141
26 1128
27 1108
28 1096
29 1096
30 1092
31 1092
32 1066
33 1066
34 1062
35 1062
36 1055
37 1052
38 1051
39 1035
40 1035
41 1026
42 1026
43 1020
44 1009
45 1009
46 1009
47 1009
48 991
49 991
50 986
51 980
52 976
53 976
54 965
55 965
56 965
57 965
58 965
59 965
60 962
61 962
62 960
63 960
64 960
65 960
66 960
67 960
68 953
69 953
70 953
71 953
72 953
73 953
74 950
75 950
76 950
77 950
78 950
79 945
80 945
81 945
82 945
83 945
84 937
85 937
86 937
87 937
88 937
89 937
90 935
91 935
92 935
93 935
94 935
95 935
96 930
97 927
98 927
99 927
100 927
101 927
102 927
103 927
104 927
105 927
106 927
107 927
108 927
109 927
110 927
111 927
112 927
113 927
114 927
115 927
116 927
117 927
118 927
119 927
120 927
121 927
122 927
123 927
124 927
125 927
126 927
127 927
128 927
129 927
130 927
131 927
132 927
133 927
134 927
135 927
136 927
137 927
138 927
139 927
140 927
141 927
142 927
143 927
144 927
145 927
146 927
147 927
148 927
149 927
150 927
151 927
152 927
153 927
154 927
155 927
156 927
157 927
158 927
159 927
160 927
161 927
162 927
163 927
164 927
165 927
166 927
167 927
168 927
169 927
170 927
171 927
172 927
173 927
174 927
175 927
176 927
177 927
178 927
179 927
180 927
181 927
182 927
183 927
184 927
185 927
186 927
187 927
188 927
189 927
190 927
191 927
192 927
193 927
194 927
195 927
196 927
197 927
198 927
199 927
200 927
201 927
202 927
203 927
204 927
205 927
206 927
207 927
208 927
209 927
210 927
211 927
212 927
213 927
214 927
215 927
216 927
217 927
218 927
219 927
220 927
221 927
222 927
223 927
224 927
225 927
226 927
227 927
228 927
229 927
230 927
231 927
232 927
233 927
234 927
235 927
236 927
237 927
238 927
239 927
240 927
241 927
242 927
243 927
244 927
245 927
246 927
247 927
248 927
249 927
250 927
251 927
252 927
253 927
254 927
255 927
256 927
257 927
258 927
259 927
260 927
261 927
262 927
263 927
264 927
265 927
266 927
267 927
268 927
269 927
270 927
271 927
272 927
273 927
274 927
275 927
276 927
277 927
278 927
279 927
280 927
281 927
282 927
283 927
284 927
285 927
286 927
287 927
288 927
289 927
290 927
291 927
292 927
293 927
294 927
295 927
296 927
297 927
298 927
299 927
300 927
301 927
302 927
303 927
304 927
305 927
306 927
307 927
308 927
309 927
310 927
311 927
312 927
313 927
314 927
315 927
316 927
317 927
318 927
319 927
320 927
321 927
322 927
323 927
324 927
325 927
326 927
327 927
328 927
329 927
330 927
331 927
332 927
333 927
334 927
335 927
336 927
337 927
338 927
339 927
340 927
341 927
342 927
343 927
344 927
345 927
346 927
347 927
348 927
349 927
350 927
351 927
352 927
353 927
354 927
355 927
356 927
357 927
358 927
359 927
360 927
361 927
362 927
363 927
364 927
365 927
366 927
367 927
368 927
369 927
370 927
371 927
372 927
373 927
374 927
375 927
376 927
377 927
378 927
379 927
380 927
381 927
382 927
383 927
384 927
385 927
386 927
387 927
388 927
389 927
390 927
391 927
392 927
393 927
394 927
395 927
396 927
397 927
398 927
399 927
400 927
401 927
402 927
403 927
404 927
405 927
406 927
407 927
408 927
409 927
410 927
411 927
412 927
413 927
414 927
415 927
416 927
417 927
418 927
419 927
420 927
421 927
422 926
423 926
424 926
425 926
426 926
427 922
428 920
429 920
430 918
431 918
432 918
433 918
434 917
435 917
436 917
437 917
438 917
439 917
440 917
441 917
442 917
443 917
444 917
445 917
446 917
447 917
448 917
449 917
450 917
451 917
452 917
453 917
454 917
455 917
456 917
457 917
458 917
459 917
460 917
461 917
462 917
463 917
464 917
465 917
466 917
467 917
468 917
469 917
470 917
471 917
472 917
473 917
474 917
475 917
476 917
477 917
478 917
479 917
480 917
481 917
482 917
483 917
484 917
485 917
486 917
487 917
488 917
489 917
490 917
491 917
492 917
493 917
494 917
495 917
496 917
497 917
498 917
499 917
500 917
501 917
502 917
503 917
504 917
505 917
506 917
507 917
508 917
509 917
510 917
511 917
512 917
513 917
514 917
515 917
516 917
517 917
518 917
519 917
520 917
521 917
522 917
523 917
524 917
525 917
526 917
527 917
528 917
529 917
530 917
531 917
532 917
533 917
534 917
535 917
536 917
537 917
538 917
539 917
540 917
541 917
542 917
543 917
544 917
545 917
546 917
547 917
548 917
549 917
550 917
551 917
552 917
553 917
554 917
555 917
556 917
557 917
558 917
559 917
560 917
561 917
562 917
563 917
564 917
565 917
566 917
567 917
568 917
569 917
570 917
571 917
572 917
573 917
574 917
575 917
576 917
577 917
578 917
579 917
580 917
581 917
582 917
583 917
584 917
585 917
586 917
587 917
588 917
589 917
590 917
591 917
592 917
593 917
594 917
595 917
596 917
597 917
598 917
599 917
600 917
601 917
602 917
603 917
604 917
605 917
606 917
607 917
608 917
609 917
610 917
611 917
612 917
613 917
614 917
615 917
616 917
617 917
618 917
619 917
620 917
621 917
622 917
623 917
624 917
625 917
626 917
627 917
628 917
629 917
630 917
631 917
632 917
633 917
634 917
635 917
636 917
637 917
638 917
639 917
640 917
641 917
642 917
643 917
644 917
645 917
646 917
647 917
648 917
649 917
650 917
651 917
652 917
653 917
654 917
655 917
656 917
657 917
658 917
659 917
660 917
661 917
662 917
663 917
664 917
665 917
666 917
667 917
668 917
669 917
670 917
671 917
672 917
673 917
674 917
675 917
676 917
677 917
678 917
679 917
680 917
681 917
682 917
683 917
684 917
685 917
686 917
687 917
688 917
689 917
690 917
691 917
692 917
693 917
694 917
695 917
696 917
697 917
698 917
699 917
700 917
701 917
702 917
703 917
704 917
705 917
706 917
707 917
708 917
709 917
710 917
711 917
712 917
713 917
714 917
715 917
716 917
717 917
718 917
719 917
720 917
721 917
722 917
723 917
724 917
725 917
726 917
727 917
728 917
729 917
730 917
731 917
732 917
733 917
734 917
735 917
736 917
737 917
738 917
739 917
740 917
741 917
742 917
743 917
744 917
745 917
746 917
747 917
748 917
749 917
750 917
751 917
752 917
753 917
754 917
755 917
756 917
757 917
758 917
759 917
760 917
761 917
762 917
763 917
764 917
765 917
766 917
767 917
768 917
769 917
770 917
771 917
772 917
773 917
774 917
775 917
776 917
777 917
778 917
779 917
780 917
781 917
782 917
783 917
784 917
785 917
786 917
787 917
788 917
789 917
790 917
791 917
792 917
793 917
794 917
795 917
796 917
797 917
798 917
799 917
800 917
801 917
802 917
803 917
804 917
805 917
806 917
807 917
808 917
809 917
810 917
811 917
812 917
813 917
814 917
815 917
816 917
817 917
818 917
819 917
820 917
821 917
822 917
823 917
824 917
825 917
826 917
827 917
828 917
829 917
830 917
831 917
832 917
833 917
834 917
835 917
836 917
837 917
838 917
839 917
840 917
841 917
842 917
843 917
844 917
845 917
846 917
847 917
848 917
849 917
850 917
851 917
852 917
853 917
854 917
855 917
856 917
857 917
858 917
859 917
860 917
861 917
862 917
863 917
864 917
865 917
866 917
867 917
868 917
869 917
870 917
871 917
872 917
873 917
874 917
875 917
876 917
877 917
878 917
879 917
880 917
881 917
882 917
883 917
884 917
885 917
886 917
887 917
888 917
889 917
890 917
891 917
892 917
893 917
894 917
895 917
896 917
897 917
898 917
899 917
900 917
901 917
902 917
903 917
904 917
905 917
906 917
907 917
908 917
909 917
910 917
911 917
912 917
913 917
914 917
915 917
916 917
917 917
918 917
919 917
920 917
921 917
922 917
923 917
924 917
925 917
926 917
927 917
928 917
929 917
930 917
931 917
932 917
933 917
934 917
935 917
936 917
937 917
938 917
939 917
940 917
941 917
942 917
943 917
944 917
945 917
946 917
947 917
948 917
949 917
950 917
951 917
952 917
953 917
954 917
955 917
956 917
957 917
958 917
959 917
960 917
961 917
962 917
963 917
964 917
965 917
966 917
967 917
968 917
969 917
970 917
971 917
972 917
973 917
974 917
975 917
976 917
977 917
978 917
979 917
980 917
981 917
982 917
983 917
984 917
985 917
986 917
987 917
988 917
989 917
990 917
991 917
992 917
993 917
994 917
995 917
996 917
997 917
998 917
999 917
Best: [[27,8,14,18,20,13],
       [31,17],
       [21,6,26,11,28,25],
       [15,7,3,24,9,10,23,16,30],
       [2,22,32,4,29,5,12,19]], fitness: 917
